c CNF formula generated by generate_input.py
c Number of variables: 50
c Number of clauses: 50
c Clause length: random between 1 and 4
p cnf 50 50
30 6 0
8 0
-40 23 49 -9 0
-40 -17 30 0
8 0
48 -3 44 -22 0
-9 -26 10 0
-34 17 38 0
2 0
-35 -14 50 29 0
-35 6 23 42 0
23 -50 48 0
-43 5 -27 0
-13 -23 40 0
47 -48 0
-11 0
16 17 -5 0
39 0
8 0
-7 -23 -10 8 0
-7 0
31 0
-11 -2 15 0
-9 -46 0
16 41 -40 10 0
38 37 0
33 0
-3 0
19 27 0
6 -50 0
-28 37 33 0
-26 0
-13 18 0
-40 0
-1 0
16 0
13 49 -39 0
36 -32 0
-11 46 0
-2 -3 0
-8 42 11 0
-20 36 0
-13 35 32 -9 0
44 -32 -14 0
-34 0
42 0
50 -48 2 -46 0
-16 48 -20 23 0
25 0
26 22 25 -6 0
